100 8
208 155
787 672
375 440
734 605
516 848
314 779
706 627
386 863
327 829
366 692
593 701
313 366
715 405
893 597
311 510
787 966
610 362
100 204
689 584
308 584
632 368
504 767
774 671
606 814
315 804
831 344
269 608
778 612
191 803
196 475
967 129
978 996
765 400
812 291
955 988
604 778
308 644
687 340
821 918
910 131
158 274
204 726
450 870
795 160
902 961
817 251
390 664
743 651
793 899
646 617
721 694
723 561
901 525
210 324
324 615
291 552
405 851
873 652
428 852
81 424
133 301
120 271
717 442
268 321
413 581
895 926
779 324
599 657
787 875
72 147
439 408
606 797
779 432
699 559
178 211
887 676
794 285
873 601
791 989
826 169
836 572
335 364
604 792
833 488
822 240
209 382
319 655
360 335
298 736
365 867
327 789
676 621
583 423
145 321
62 122
555 333
609 386
83 137
855 304
952 301
